155	32	4	59	
10	10	10	10

0	0	0	0	0	0	17	1	2	4	5	7	8	12	13	14	15	16	25	26	27	28	29	30
1	1	1	1	0	10	2	23	3
2	9	0	3	1	10	3	21	18	6
3	5	0	5	5	7	2	21	6
4	0	4	5	7	10	3	23	22	11
5	3	3	0	5	7	3	24	20	18
6	0	5	5	4	5	1	9
7	1	0	6	4	5	2	20	18
8	2	5	0	4	6	2	20	18
9	1	5	2	0	2	1	10
10	0	3	6	4	5	1	17
11	7	3	5	0	5	1	19
12	0	4	4	3	9	1	22
13	6	4	0	6	1	1	19
14	1	5	0	7	6	1	19
15	5	5	0	4	4	1	19
16	0	5	2	1	1	1	18
17	3	0	2	4	5	1	31
18	5	5	5	0	9	1	31
19	5	0	3	5	1	1	31
20	6	7	0	4	8	1	31
21	2	3	0	1	8	1	31
22	0	1	10	5	6	1	31
23	6	5	0	6	1	1	31
24	6	5	4	0	1	1	31
25	0	2	4	3	2	1	31
26	0	4	4	2	9	1	31
27	4	5	2	0	3	1	31
28	0	2	4	5	4	1	31
29	0	3	2	4	2	1	31
30	2	6	0	2	3	1	31
31	0	0	0	0	0	0
